
Gurobi 12.0.1 (linux64, C++) logging started Wed Apr  2 18:47:41 2025

Set parameter Username
Set parameter LicenseID to value 2642819
Set parameter LogFile to value "gurobi_aco.log"
Academic license - for non-commercial use only - expires 2026-03-27
Set parameter TimeLimit to value 3600
Set parameter LazyConstraints to value 1
Gurobi Optimizer version 12.0.1 build v12.0.1rc0 (linux64 - "Ubuntu 22.04.5 LTS")

CPU model: AMD Ryzen 9 5900HX with Radeon Graphics, instruction set [SSE2|AVX|AVX2]
Thread count: 8 physical cores, 16 logical processors, using up to 16 threads

Non-default parameters:
TimeLimit  3600
LazyConstraints  1

Optimize a model with 1150 rows, 330625 columns and 661250 nonzeros
Model fingerprint: 0x64920c5c
Variable types: 0 continuous, 330625 integer (330625 binary)
Coefficient statistics:
  Matrix range     [1e+00, 1e+00]
  Objective range  [2e+00, 5e+02]
  Bounds range     [1e+00, 1e+00]
  RHS range        [1e+00, 1e+00]

Warning: Completing partial solution with 330050 unfixed non-continuous variables out of 330625
User MIP start produced solution with objective 9120.61 (0.18s)
Loaded user MIP start with objective 9120.61

Presolve time: 0.54s
Presolved: 1150 rows, 330625 columns, 661250 nonzeros
Variable types: 0 continuous, 330625 integer (330625 binary)
Root relaxation presolved: 1150 rows, 330625 columns, 661250 nonzeros

Deterministic concurrent LP optimizer: primal simplex, dual simplex, and barrier
Showing barrier log only...

Root barrier log...

Ordering time: 0.01s

Barrier statistics:
 AA' NZ     : 1.650e+05
 Factor NZ  : 1.656e+05 (roughly 70 MB of memory)
 Factor Ops : 6.354e+07 (less than 1 second per iteration)
 Threads    : 6

Barrier performed 0 iterations in 1.42 seconds (1.28 work units)
Barrier solve interrupted - model solved by another algorithm

Concurrent spin time: 0.05s

Solved with dual simplex

Use crossover to convert LP symmetric solution to basic solution...

Root relaxation: objective 0.000000e+00, 3 iterations, 0.61 seconds (0.33 work units)

    Nodes    |    Current Node    |     Objective Bounds      |     Work
 Expl Unexpl |  Obj  Depth IntInf | Incumbent    BestBd   Gap | It/Node Time

*    0     0               0       0.0000000    0.00000  0.00%     -    1s

Explored 1 nodes (3 simplex iterations) in 1.49 seconds (1.30 work units)
Thread count was 16 (of 16 available processors)

Solution count 2: 0 9120.61 

Optimal solution found (tolerance 1.00e-04)
Best objective 0.000000000000e+00, best bound 0.000000000000e+00, gap 0.0000%

User-callback calls 215, time in user-callback 0.01 sec

Gurobi 12.0.1 (linux64, C++) logging started Sun Apr  6 19:57:03 2025

Set parameter Username
Set parameter LicenseID to value 2642819
Set parameter LogFile to value "gurobi_aco.log"
Academic license - for non-commercial use only - expires 2026-03-27
Set parameter TimeLimit to value 3600
Set parameter LazyConstraints to value 1
Gurobi Optimizer version 12.0.1 build v12.0.1rc0 (linux64 - "Ubuntu 22.04.5 LTS")

CPU model: AMD Ryzen 9 5900HX with Radeon Graphics, instruction set [SSE2|AVX|AVX2]
Thread count: 8 physical cores, 16 logical processors, using up to 16 threads

Non-default parameters:
TimeLimit  3600
LazyConstraints  1

Optimize a model with 1150 rows, 330625 columns and 661250 nonzeros
Model fingerprint: 0x78c18d8f
Variable types: 0 continuous, 330625 integer (330625 binary)
Coefficient statistics:
  Matrix range     [1e+00, 1e+00]
  Objective range  [2e+00, 5e+02]
  Bounds range     [1e+00, 1e+00]
  RHS range        [1e+00, 1e+00]

Warning: Completing partial solution with 330050 unfixed non-continuous variables out of 330625
User MIP start produced solution with objective 8707.59 (0.14s)
Loaded user MIP start with objective 8707.59

Presolve time: 0.43s
Presolved: 1150 rows, 330625 columns, 661250 nonzeros
Variable types: 0 continuous, 330625 integer (330625 binary)
Root relaxation presolved: 1150 rows, 330625 columns, 661250 nonzeros

Deterministic concurrent LP optimizer: primal simplex, dual simplex, and barrier
Showing barrier log only...

Root barrier log...

Ordering time: 0.01s

Barrier statistics:
 AA' NZ     : 1.650e+05
 Factor NZ  : 1.656e+05 (roughly 70 MB of memory)
 Factor Ops : 6.354e+07 (less than 1 second per iteration)
 Threads    : 6

Barrier performed 0 iterations in 1.13 seconds (1.28 work units)
Barrier solve interrupted - model solved by another algorithm

Concurrent spin time: 0.05s

Solved with dual simplex

Use crossover to convert LP symmetric solution to basic solution...

Root relaxation: objective 0.000000e+00, 3 iterations, 0.49 seconds (0.33 work units)

    Nodes    |    Current Node    |     Objective Bounds      |     Work
 Expl Unexpl |  Obj  Depth IntInf | Incumbent    BestBd   Gap | It/Node Time

*    0     0               0       0.0000000    0.00000  0.00%     -    1s

Explored 1 nodes (3 simplex iterations) in 1.20 seconds (1.30 work units)
Thread count was 16 (of 16 available processors)

Solution count 2: 0 8707.59 

Optimal solution found (tolerance 1.00e-04)
Best objective 0.000000000000e+00, best bound 0.000000000000e+00, gap 0.0000%

User-callback calls 213, time in user-callback 0.01 sec

Gurobi 12.0.1 (linux64, C++) logging started Sun Apr  6 19:59:37 2025

Set parameter Username
Set parameter LicenseID to value 2642819
Set parameter LogFile to value "gurobi_aco.log"
Academic license - for non-commercial use only - expires 2026-03-27
Set parameter TimeLimit to value 3600
Set parameter LazyConstraints to value 1
Gurobi Optimizer version 12.0.1 build v12.0.1rc0 (linux64 - "Ubuntu 22.04.5 LTS")

CPU model: AMD Ryzen 9 5900HX with Radeon Graphics, instruction set [SSE2|AVX|AVX2]
Thread count: 8 physical cores, 16 logical processors, using up to 16 threads

Non-default parameters:
TimeLimit  3600
LazyConstraints  1

Optimize a model with 1150 rows, 330625 columns and 661250 nonzeros
Model fingerprint: 0xc96afe3c
Variable types: 0 continuous, 330625 integer (330625 binary)
Coefficient statistics:
  Matrix range     [1e+00, 1e+00]
  Objective range  [2e+00, 5e+02]
  Bounds range     [1e+00, 1e+00]
  RHS range        [1e+00, 1e+00]

Warning: Completing partial solution with 330050 unfixed non-continuous variables out of 330625
User MIP start produced solution with objective 8896.89 (0.14s)
Loaded user MIP start with objective 8896.89

Presolve time: 0.42s
Presolved: 1150 rows, 330625 columns, 661250 nonzeros
Variable types: 0 continuous, 330625 integer (330625 binary)
Root relaxation presolved: 1150 rows, 330625 columns, 661250 nonzeros

Deterministic concurrent LP optimizer: primal simplex, dual simplex, and barrier
Showing barrier log only...

Root barrier log...

Ordering time: 0.01s

Barrier statistics:
 AA' NZ     : 1.650e+05
 Factor NZ  : 1.656e+05 (roughly 70 MB of memory)
 Factor Ops : 6.354e+07 (less than 1 second per iteration)
 Threads    : 6

Barrier performed 0 iterations in 1.23 seconds (1.28 work units)
Barrier solve interrupted - model solved by another algorithm

Concurrent spin time: 0.04s

Solved with dual simplex

Use crossover to convert LP symmetric solution to basic solution...

Root relaxation: objective 0.000000e+00, 3 iterations, 0.59 seconds (0.33 work units)

    Nodes    |    Current Node    |     Objective Bounds      |     Work
 Expl Unexpl |  Obj  Depth IntInf | Incumbent    BestBd   Gap | It/Node Time

*    0     0               0       0.0000000    0.00000  0.00%     -    1s

Explored 1 nodes (3 simplex iterations) in 1.31 seconds (1.30 work units)
Thread count was 16 (of 16 available processors)

Solution count 2: 0 8896.89 

Optimal solution found (tolerance 1.00e-04)
Best objective 0.000000000000e+00, best bound 0.000000000000e+00, gap 0.0000%

User-callback calls 216, time in user-callback 0.01 sec
